4 100 1844
11 12 14 10 8 9 8 10 7 7
4 1 1 1
4 7 4 3
5
7
2
0 40.0 50.0 0.0 0.0 0 1236
2 45.0 68.0 90.0 10.0 912 967 58 0 0 0 0 0 0 1 1 0 0
3 45.0 70.0 90.0 30.0 825 870 32 0 0 0 1 0 1 0 0 0 0
4 42.0 66.0 90.0 10.0 65 146 38 0 0 1 0 0 0 0 0 0 0
5 42.0 68.0 90.0 10.0 727 782 71 1 0 0 0 0 0 0 0 0 0
6 42.0 65.0 90.0 10.0 15 67 59 1 0 0 0 0 0 0 0 0 0
7 40.0 69.0 90.0 20.0 621 702 22 0 1 1 0 0 0 0 1 1 0
8 40.0 66.0 90.0 20.0 170 225 26 0 1 0 0 0 0 0 0 0 1
9 38.0 68.0 90.0 20.0 255 324 62 1 1 0 0 0 0 0 1 0 0
10 38.0 70.0 90.0 10.0 534 605 27 0 0 0 1 0 0 0 1 1 0
11 35.0 66.0 90.0 10.0 357 410 13 0 1 0 0 0 1 0 0 0 0
12 35.0 69.0 90.0 10.0 448 505 38 1 0 0 0 0 0 1 0 1 0
13 25.0 85.0 90.0 20.0 652 721 48 1 0 0 1 0 0 0 0 1 0
14 22.0 75.0 90.0 30.0 30 92 46 0 0 0 0 0 1 0 0 0 0
15 22.0 85.0 90.0 10.0 567 620 44 0 0 0 0 0 1 0 0 0 0
16 20.0 80.0 90.0 40.0 384 429 8 0 0 1 0 1 0 0 1 0 0
17 20.0 85.0 90.0 40.0 475 528 96 0 0 1 1 0 1 1 0 0 0
18 18.0 75.0 90.0 20.0 99 148 46 1 0 0 0 0 1 0 0 1 0
19 15.0 75.0 90.0 20.0 179 254 58 0 0 0 0 0 0 0 0 1 0
20 15.0 80.0 90.0 10.0 278 345 49 0 0 0 0 0 0 0 1 0 0
21 30.0 50.0 90.0 10.0 10 73 43 1 0 0 0 0 1 0 0 0 0
22 30.0 52.0 90.0 20.0 914 965 84 0 0 0 0 0 1 0 0 0 0
23 28.0 52.0 90.0 20.0 812 883 44 0 0 0 0 1 0 0 0 0 1
24 28.0 55.0 90.0 10.0 732 777 26 1 0 0 0 0 0 1 0 0 0
25 25.0 50.0 90.0 10.0 65 144 71 0 0 0 0 0 1 0 0 0 0
26 25.0 52.0 90.0 40.0 169 224 33 1 0 0 0 0 0 0 0 0 0
27 25.0 55.0 90.0 10.0 622 701 56 0 1 0 0 1 0 0 0 0 0
28 23.0 52.0 90.0 10.0 261 316 49 1 1 0 1 0 0 1 1 0 0
29 23.0 55.0 90.0 20.0 546 593 96 0 0 1 0 0 0 1 0 0 0
30 20.0 50.0 90.0 10.0 358 405 69 0 0 0 1 0 0 0 0 0 0
31 20.0 55.0 90.0 10.0 449 504 36 0 1 0 0 0 0 1 0 1 0
32 10.0 35.0 90.0 20.0 200 237 10 1 1 0 0 0 0 1 1 0 0
33 10.0 40.0 90.0 30.0 31 100 8 0 1 0 1 0 0 0 1 0 0
34 8.0 40.0 90.0 40.0 87 158 42 0 1 0 0 0 0 0 0 0 0
35 8.0 45.0 90.0 20.0 751 816 82 0 0 1 0 0 0 0 0 0 0
36 5.0 35.0 90.0 10.0 283 344 16 0 0 1 0 0 0 0 1 0 1
37 5.0 45.0 90.0 10.0 665 716 1 0 0 0 0 0 1 0 0 0 0
38 2.0 40.0 90.0 20.0 383 434 63 0 0 1 0 0 0 0 0 0 0
39 0.0 40.0 90.0 30.0 479 522 21 0 0 0 0 1 0 0 0 0 0
40 0.0 45.0 90.0 20.0 567 624 12 0 0 1 0 1 0 0 0 0 0
41 35.0 30.0 90.0 10.0 264 321 42 1 0 1 0 1 0 1 0 0 0
42 35.0 32.0 90.0 10.0 166 235 28 0 0 0 0 1 0 0 0 1 0
43 33.0 32.0 90.0 20.0 68 149 22 0 0 0 0 0 0 0 0 0 1
44 33.0 35.0 90.0 10.0 16 80 8 0 0 0 0 0 1 0 0 0 0
45 32.0 30.0 90.0 10.0 359 412 79 0 0 0 0 0 1 0 0 0 0
46 30.0 30.0 90.0 10.0 541 600 17 0 0 0 0 0 0 0 0 1 0
47 30.0 32.0 90.0 30.0 448 509 0 0 0 1 1 0 0 0 1 0 1
48 30.0 35.0 90.0 10.0 1054 1127 81 0 0 0 0 1 0 0 0 0 1
49 28.0 30.0 90.0 10.0 632 693 53 1 0 0 0 0 0 0 1 0 0
50 28.0 35.0 90.0 10.0 1001 1066 21 1 1 0 1 1 0 0 0 1 0
51 26.0 32.0 90.0 10.0 815 880 70 0 0 0 0 0 1 0 0 0 0
52 25.0 30.0 90.0 10.0 725 786 51 0 0 1 0 0 0 0 0 0 1
53 25.0 35.0 90.0 10.0 912 969 62 0 0 0 0 0 0 0 0 1 0
54 44.0 5.0 90.0 20.0 286 347 56 0 1 1 1 0 0 1 0 1 0
55 42.0 10.0 90.0 40.0 186 257 36 0 0 0 0 0 1 0 0 0 0
56 42.0 15.0 90.0 10.0 95 158 54 0 0 1 0 1 0 0 0 1 0
57 40.0 5.0 90.0 30.0 385 436 37 0 1 0 1 0 0 0 0 0 0
58 40.0 15.0 90.0 40.0 35 87 62 0 1 1 1 0 1 0 0 0 1
59 38.0 5.0 90.0 30.0 471 534 53 1 0 1 0 1 1 0 0 0 0
60 38.0 15.0 90.0 10.0 651 740 90 0 0 0 0 0 1 0 0 0 0
61 35.0 5.0 90.0 20.0 562 629 63 1 1 0 0 0 0 0 0 0 0
62 50.0 30.0 90.0 10.0 531 610 9 0 0 0 0 0 1 0 0 0 1
63 50.0 35.0 90.0 20.0 262 317 72 1 0 1 0 0 1 1 0 1 0
64 50.0 40.0 90.0 50.0 171 218 61 1 0 1 0 1 0 0 0 0 1
65 48.0 30.0 90.0 10.0 632 693 70 0 1 0 0 1 0 0 0 0 0
66 48.0 40.0 90.0 10.0 76 129 7 0 0 1 0 1 1 0 0 0 0
67 47.0 35.0 90.0 10.0 826 875 1 0 0 0 0 0 1 0 0 0 0
68 47.0 40.0 90.0 10.0 12 77 82 0 1 0 0 0 0 0 0 0 1
69 45.0 30.0 90.0 10.0 734 777 55 0 1 0 0 0 0 0 0 0 0
70 45.0 35.0 90.0 10.0 916 969 16 1 0 1 0 0 0 0 0 0 0
71 95.0 30.0 90.0 30.0 387 456 48 0 0 0 0 0 0 0 0 1 1
72 95.0 35.0 90.0 20.0 293 360 18 1 0 0 0 0 0 0 0 1 0
73 53.0 30.0 90.0 10.0 450 505 12 0 0 0 0 0 0 0 0 1 0
74 92.0 30.0 90.0 10.0 478 551 90 1 0 0 1 0 0 1 0 0 0
75 53.0 35.0 90.0 50.0 353 412 9 1 0 0 0 0 0 0 1 0 1
76 45.0 65.0 90.0 20.0 997 1068 82 0 0 0 0 0 1 0 0 0 0
77 90.0 35.0 90.0 10.0 203 260 23 0 0 0 0 0 0 1 0 0 0
78 88.0 30.0 90.0 10.0 574 643 62 0 0 0 0 0 1 0 0 0 0
79 88.0 35.0 90.0 20.0 109 170 66 0 0 0 1 0 0 0 0 0 0
80 87.0 30.0 90.0 10.0 668 731 91 0 0 0 0 0 1 0 0 0 0
81 85.0 25.0 90.0 10.0 769 820 50 1 0 0 0 0 0 0 0 0 0
82 85.0 35.0 90.0 30.0 47 124 52 0 1 0 0 0 0 0 1 0 0
83 75.0 55.0 90.0 20.0 369 420 42 0 0 0 1 0 0 0 0 0 0
84 72.0 55.0 90.0 10.0 265 338 58 0 0 0 0 1 0 1 0 0 0
85 70.0 58.0 90.0 20.0 458 523 43 0 0 0 0 1 0 0 0 0 0
86 68.0 60.0 90.0 30.0 555 612 11 0 0 0 1 1 0 1 0 0 0
87 66.0 55.0 90.0 10.0 173 238 75 0 0 0 0 0 0 1 0 0 0
88 65.0 55.0 90.0 20.0 85 144 52 0 0 0 0 0 0 1 0 0 0
89 65.0 60.0 90.0 30.0 645 708 32 0 0 1 0 0 1 0 0 1 1
90 63.0 58.0 90.0 10.0 737 802 91 0 1 0 0 0 0 0 0 0 1
91 60.0 55.0 90.0 10.0 20 84 0 0 0 0 1 0 0 0 0 0 0
92 60.0 60.0 90.0 10.0 836 889 71 0 0 0 0 0 1 0 0 0 0
93 67.0 85.0 90.0 20.0 368 441 33 0 0 0 0 1 0 0 0 0 1
94 65.0 85.0 90.0 40.0 475 518 8 0 0 0 0 0 1 0 0 0 0
95 65.0 82.0 90.0 10.0 285 336 57 0 0 0 0 0 0 1 0 0 0
96 62.0 80.0 90.0 30.0 196 239 20 0 0 0 1 0 0 0 0 0 0
97 60.0 80.0 90.0 10.0 95 156 11 1 0 1 0 0 1 0 1 0 1
98 60.0 85.0 90.0 30.0 561 622 80 0 1 0 1 0 1 1 0 0 0
99 58.0 75.0 90.0 20.0 30 84 39 1 0 0 0 0 1 0 0 1 0
100 55.0 80.0 90.0 10.0 743 820 27 0 0 0 0 0 1 0 0 0 0
101 55.0 85.0 90.0 20.0 647 726 93 0 0 0 0 0 1 0 0 0 0